c
c This is glucose-syrup 4.0 (glucose in many threads) --  based on MiniSAT (Many thanks to MiniSAT team)
c
c WARNING: for repeatability, setting FPU to use double precision
c ========================================[ Problem Statistics ]===========================================
c |                                                                                                       |
c |  Number of variables:          4328                                                                   |
c |  Number of clauses:          462645                                                                   |
c |  Parse time:                   0.18 s                                                                 |
c |                                                                                                       |
c |  Eliminated clauses:           0.00 Mb                                                                |
c |  Simplification time:          3.68 s                                                                 |
c |                                                                                                       |
c |  Automatic Adjustement of the number of solvers. MaxMemory=20000, MaxCores=  4.                       |
c |  One Solver is taking 57.68Mb... Let's take 4 solvers for this run (max 40% of the maxmemory).       |
c |  Generating clones                                                                                    |
c |  all clones generated. Memory = 137.52Mb.                                                             |
c ========================================================================================================|
c last restart ## conflicts  :  265 50 
c Thread 1 is 100% pure glucose! First thread to finish! (SAT answer).
c Total Memory so far : 435.52Mb
c
c real time : 5.18245 s
c cpu time  : 7.83538 s
c
c
c
c |---------------------------------------- FINAL STATS --------------------------------------------------|
c
c |---------------|-----------------|------------|------------|------------|------------|
c | Threads       |      Total      |          0 |          1 |          2 |          3 |
c |---------------|-----------------|------------|------------|------------|------------|
c | Conflicts     |           78904 |      18026 |      20532 |      20309 |      20037 |
c | Decisions     |         1190622 |     198223 |     310181 |     360791 |     321427 |
c | Propagations  |         5669503 |    1095562 |    1416248 |    1709104 |    1448589 |
c | Avg_Trail     |                 |       3407 |       2950 |       2984 |       2898 |
c | Avg_DL        |                 |        219 |        109 |        103 |         99 |
c | Avg_Res       |                 |          0 |          0 |          0 |          0 |
c | Avg_Res_Seen  |                 |          0 |          0 |          0 |          0 |
c |---------------|-----------------|------------|------------|------------|------------|
c | Exported      |           10205 |       3065 |       2349 |       2288 |       2503 |
c | Imported      |           29368 |       6511 |       7749 |       7808 |       7300 |
c | Good          |              36 |         12 |          8 |          9 |          7 |
c | Purge         |           29332 |       6499 |       7741 |       7799 |       7293 |
c | Promoted      |            2089 |        425 |        558 |        500 |        606 |
c | Remove_Imp    |               0 |          0 |          0 |          0 |          0 |
c | Blocked_Reuse |               0 |          0 |          0 |          0 |          0 |
c |---------------|-----------------|------------|------------|------------|------------|
c | Unaries       |                 |          0 |          0 |          2 |          0 |
c | Binaries      |                 |          0 |          4 |          3 |          5 |
c | Glues         |                 |         73 |        121 |        134 |        130 |
c |---------------|-----------------|------------|------------|------------|------------|
c | Orig_Seen     |             8 % |      35864 |      38787 |      38764 |      36662 |
c | Diff Orig seen|                 | -     2923 |      X     | -       23 | -     2125 |
c | Hamming       |            17 % |        769 |      X     |        842 |        692 |
c |---------------|-----------------|------------|------------|------------|------------|

s SATISFIABLE
c
c This is glucose-syrup 4.0 (glucose in many threads) --  based on MiniSAT (Many thanks to MiniSAT team)
c
c WARNING: for repeatability, setting FPU to use double precision
c ========================================[ Problem Statistics ]===========================================
c |                                                                                                       |
c |  Number of variables:          4621                                                                   |
c |  Number of clauses:          600524                                                                   |
c |  Parse time:                   0.21 s                                                                 |
c |                                                                                                       |
c |  Eliminated clauses:           0.00 Mb                                                                |
c |  Simplification time:          5.75 s                                                                 |
c |                                                                                                       |
c |  Automatic Adjustement of the number of solvers. MaxMemory=20000, MaxCores=  4.                       |
c |  One Solver is taking 74.75Mb... Let's take 4 solvers for this run (max 40% of the maxmemory).       |
c |  Generating clones                                                                                    |
c |  all clones generated. Memory = 193.97Mb.                                                             |
c ========================================================================================================|
c last restart ## conflicts  :  0 225 
c Thread 2 is 100% pure glucose! First thread to finish! (SAT answer).
c Total Memory so far : 500.83Mb
c
c real time : 7.99921 s
c cpu time  : 12.5478 s
c
c
c
c |---------------------------------------- FINAL STATS --------------------------------------------------|
c
c |---------------|-----------------|------------|------------|------------|------------|
c | Threads       |      Total      |          0 |          1 |          2 |          3 |
c |---------------|-----------------|------------|------------|------------|------------|
c | Conflicts     |          125283 |      32200 |      30137 |      30585 |      32361 |
c | Decisions     |         1719440 |     471546 |     388559 |     455584 |     403751 |
c | Propagations  |         7410904 |    2111423 |    1612402 |    1897829 |    1789250 |
c | Avg_Trail     |                 |       3054 |       3039 |       3203 |       3043 |
c | Avg_DL        |                 |        162 |        165 |        174 |        165 |
c | Avg_Res       |                 |          0 |          0 |          0 |          0 |
c | Avg_Res_Seen  |                 |          0 |          0 |          0 |          0 |
c |---------------|-----------------|------------|------------|------------|------------|
c | Exported      |           17020 |       4293 |       4481 |       4086 |       4160 |
c | Imported      |           50818 |      12655 |      12385 |      12918 |      12860 |
c | Good          |              33 |          6 |         11 |          9 |          7 |
c | Purge         |           50785 |      12649 |      12374 |      12909 |      12853 |
c | Promoted      |            2950 |        727 |        788 |        774 |        661 |
c | Remove_Imp    |               0 |          0 |          0 |          0 |          0 |
c | Blocked_Reuse |               0 |          0 |          0 |          0 |          0 |
c |---------------|-----------------|------------|------------|------------|------------|
c | Unaries       |                 |          1 |          1 |          0 |          0 |
c | Binaries      |                 |          5 |          0 |          2 |          4 |
c | Glues         |                 |        227 |        237 |        174 |        183 |
c |---------------|-----------------|------------|------------|------------|------------|
c | Orig_Seen     |             9 % |      59831 |      54906 |      60541 |      58555 |
c | Diff Orig seen|                 | -      710 | -     5635 |      X     | -     1986 |
c | Hamming       |            17 % |        839 |        665 |      X     |        920 |
c |---------------|-----------------|------------|------------|------------|------------|

s SATISFIABLE
c
c This is glucose-syrup 4.0 (glucose in many threads) --  based on MiniSAT (Many thanks to MiniSAT team)
c
c WARNING: for repeatability, setting FPU to use double precision
c ========================================[ Problem Statistics ]===========================================
c |                                                                                                       |
c |  Number of variables:           356                                                                   |
c |  Number of clauses:           16895                                                                   |
c |  Parse time:                   0.01 s                                                                 |
c |                                                                                                       |
c |  Eliminated clauses:           0.00 Mb                                                                |
c |  Simplification time:          0.07 s                                                                 |
c |                                                                                                       |
c |  Automatic Adjustement of the number of solvers. MaxMemory=20000, MaxCores=  4.                       |
c |  One Solver is taking 14.89Mb... Let's take 4 solvers for this run (max 40% of the maxmemory).       |
c |  Generating clones                                                                                    |
c |  all clones generated. Memory =  22.43Mb.                                                             |
c ========================================================================================================|
c Thread 2 is 100% pure glucose! First thread to finish! (UNSAT answer).
c Total Memory so far : 296.71Mb
c
c real time : 2.35782 s
c cpu time  : 8.88162 s
c
c
c
c |---------------------------------------- FINAL STATS --------------------------------------------------|
c
c |---------------|-----------------|------------|------------|------------|------------|
c | Threads       |      Total      |          0 |          1 |          2 |          3 |
c |---------------|-----------------|------------|------------|------------|------------|
c | Conflicts     |          350880 |      86694 |      88800 |      87761 |      87625 |
c | Decisions     |          559490 |     141325 |     140409 |     139038 |     138718 |
c | Propagations  |         6862403 |    1682735 |    1717787 |    1722415 |    1739466 |
c | Avg_Trail     |                 |        222 |        223 |        222 |        222 |
c | Avg_DL        |                 |         21 |         21 |         22 |         21 |
c | Avg_Res       |                 |          0 |          0 |          0 |          0 |
c | Avg_Res_Seen  |                 |          0 |          0 |          0 |          0 |
c |---------------|-----------------|------------|------------|------------|------------|
c | Exported      |           61010 |      15216 |      15056 |      15140 |      15598 |
c | Imported      |          179230 |      42802 |      45553 |      45870 |      45005 |
c | Good          |             395 |         75 |        112 |         95 |        113 |
c | Purge         |          178835 |      42727 |      45441 |      45775 |      44892 |
c | Promoted      |           32073 |       8045 |       7906 |       8171 |       7951 |
c | Remove_Imp    |           35168 |       6888 |      14323 |       7051 |       6906 |
c | Blocked_Reuse |               0 |          0 |          0 |          0 |          0 |
c |---------------|-----------------|------------|------------|------------|------------|
c | Unaries       |                 |          2 |          6 |         14 |          1 |
c | Binaries      |                 |         34 |         33 |         78 |         28 |
c | Glues         |                 |        330 |        291 |        336 |        280 |
c |---------------|-----------------|------------|------------|------------|------------|
c | Orig_Seen     |            69 % |      11882 |      11871 |      11721 |      11633 |
c | Diff Orig seen|                 |        161 |        150 |      X     | -       88 |
c | Hamming       |            23 % |         96 |         89 |      X     |         71 |
c |---------------|-----------------|------------|------------|------------|------------|

s UNSATISFIABLE
c
c This is glucose-syrup 4.0 (glucose in many threads) --  based on MiniSAT (Many thanks to MiniSAT team)
c
c WARNING: for repeatability, setting FPU to use double precision
c ========================================[ Problem Statistics ]===========================================
c |                                                                                                       |
c |  Number of variables:           401                                                                   |
c |  Number of clauses:           22972                                                                   |
c |  Parse time:                   0.01 s                                                                 |
c |                                                                                                       |
c |  Eliminated clauses:           0.00 Mb                                                                |
c |  Simplification time:          0.11 s                                                                 |
c |                                                                                                       |
c |  Automatic Adjustement of the number of solvers. MaxMemory=20000, MaxCores=  4.                       |
c |  One Solver is taking 15.76Mb... Let's take 4 solvers for this run (max 40% of the maxmemory).       |
c |  Generating clones                                                                                    |
c |  all clones generated. Memory =  24.09Mb.                                                             |
c ========================================================================================================|
c
c Try to adapt solver strategies
c 
c Nothing extreme in this problem, continue with glucose default strategies.
c
c
c Try to adapt solver strategies
c 
c Nothing extreme in this problem, continue with glucose default strategies.
c
c
c |-------------------------------------------------------------------------------------------------------|
c | id | starts | decisions  |  confls    |  Init T  |  learnts | exported | imported | promoted |    %   | 
c |-------------------------------------------------------------------------------------------------------|
c |  0 |    423 |     273485 |     159284 |    17055 |    45067 |    24695 |    78283 |    11612 | 18.454 |
c |  1 |    422 |     302105 |     172067 |    17855 |    32471 |    26992 |    75489 |    12625 | 18.455 |
c |  2 |    357 |     289298 |     164441 |    17883 |    50245 |    25513 |    77493 |    12460 | 18.457 |
c |  3 |    347 |     300810 |     175446 |    17871 |    35847 |    25833 |    77085 |    12431 | 18.455 |
c 
c synthesis      671239 conflicts    12982686 propagations    35972 conflicts/sec   695751 propagations/sec
c Total Memory so far : 296.27Mb
c
c |-------------------------------------------------------------------------------------------------------|
c | id | starts | decisions  |  confls    |  Init T  |  learnts | exported | imported | promoted |    %   | 
c |-------------------------------------------------------------------------------------------------------|
c |  0 |    609 |     414467 |     259770 |    17216 |    61520 |    35776 |   108695 |    17806 | 21.697 |
c |  1 |    643 |     442275 |     269964 |    18049 |    35491 |    37285 |   106740 |    18826 | 21.701 |
c |  2 |    589 |     432952 |     264605 |    18072 |    32883 |    35049 |   108621 |    18915 | 21.696 |
c |  3 |    620 |     451878 |     280256 |    18059 |    46206 |    36431 |   108031 |    19407 | 21.696 |
c 
c synthesis     1074596 conflicts    23138312 propagations    27897 conflicts/sec   600686 propagations/sec
c Total Memory so far : 300.95Mb
c
c |-------------------------------------------------------------------------------------------------------|
c | id | starts | decisions  |  confls    |  Init T  |  learnts | exported | imported | promoted |    %   | 
c |-------------------------------------------------------------------------------------------------------|
c |  0 |    863 |     530313 |     343879 |    17302 |    73154 |    40768 |   133989 |    23012 | 21.946 |
c |  1 |    793 |     560279 |     358056 |    18105 |    51593 |    45902 |   128428 |    24009 | 21.951 |
c |  2 |    702 |     543190 |     348395 |    18130 |    42188 |    44818 |   131106 |    23818 | 21.966 |
c |  3 |    727 |     568612 |     368929 |    18093 |    61822 |    44496 |   131486 |    24337 | 21.961 |
c 
c synthesis     1419259 conflicts    32161449 propagations    24306 conflicts/sec   550799 propagations/sec
c Total Memory so far : 304.92Mb
c Thread 0 is 100% pure glucose! First thread to finish! (UNSAT answer).
c Total Memory so far : 307.19Mb
c
c real time : 19.1694 s
c cpu time  : 74.9179 s
c
c
c
c |---------------------------------------- FINAL STATS --------------------------------------------------|
c
c |---------------|-----------------|------------|------------|------------|------------|
c | Threads       |      Total      |          0 |          1 |          2 |          3 |
c |---------------|-----------------|------------|------------|------------|------------|
c | Conflicts     |         1703843 |     414340 |     433267 |     414876 |     441360 |
c | Decisions     |         2568866 |     621107 |     657137 |     629184 |     661438 |
c | Propagations  |        39863329 |    9780663 |   10129413 |    9585536 |   10367717 |
c | Avg_Trail     |                 |        232 |        236 |        235 |        234 |
c | Avg_DL        |                 |         20 |         21 |         21 |         21 |
c | Avg_Res       |                 |          0 |          0 |          0 |          0 |
c | Avg_Res_Seen  |                 |          0 |          0 |          0 |          0 |
c |---------------|-----------------|------------|------------|------------|------------|
c | Exported      |          211314 |      50441 |      56075 |      53331 |      51467 |
c | Imported      |          627258 |     160873 |     153931 |     154178 |     158276 |
c | Good          |             321 |         70 |         77 |         86 |         88 |
c | Purge         |          626937 |     160803 |     153854 |     154092 |     158188 |
c | Promoted      |          115109 |      27460 |      29271 |      28905 |      29473 |
c | Remove_Imp    |          229103 |      60846 |      51628 |      57126 |      59503 |
c | Blocked_Reuse |               0 |          0 |          0 |          0 |          0 |
c |---------------|-----------------|------------|------------|------------|------------|
c | Unaries       |                 |         13 |          5 |          1 |          5 |
c | Binaries      |                 |         81 |         38 |         10 |         22 |
c | Glues         |                 |        460 |        454 |        494 |        491 |
c |---------------|-----------------|------------|------------|------------|------------|
c | Orig_Seen     |            78 % |      17348 |      18140 |      18166 |      18123 |
c | Diff Orig seen|                 |      X     |        792 |        818 |        775 |
c | Hamming       |            23 % |      X     |         78 |        101 |        109 |
c |---------------|-----------------|------------|------------|------------|------------|

s UNSATISFIABLE
